Route #1: 68 76 77 79 80 78 75 72 74 71 73
Route #2: 92 89 91 90 18 118 114 109 115 97 94 93 96
Route #3: 37 44 46 49 50 51 48 47 41 38
Route #4: 20 23 28 27 24 22 25 19 16 17
Route #5: 21 26 32 35 31 30 33 34 36 29
Route #6: 120 105 106 102 95 87 86 111 82 88
Route #7: 85 84 7 9 10 11 15 14 13 12 8 108
Route #8: 65 61 62 64 66 63 60 56 58 55
Route #9: 101 99 100 116 110 98 67 70 69 103 104 107
Route #10: 112 117 113 83 6 5 4 3 1 2 81 119
Route #11: 52 53 54 57 59 40 43 45 42 39
Cost 1542.863201